p cnf 1098 2548
1 0
2 0
3 0
4 0
5 0
6 0
7 0
8 0
9 0
10 0
-11 0
-12 0
-13 0
-14 0
-15 0
-16 0
-17 0
-18 0
-19 0
-20 0
-21 22 0
-23 22 0
-24 22 0
-25 22 0
-26 22 0
-27 22 0
28 0
29 -22 0
-29 22 0
-23 30 0
-24 30 0
-25 30 0
-26 30 0
-27 30 0
23 24 25 26 27 -30 0
31 -30 0
-31 30 0
-24 32 0
-25 32 0
-26 32 0
-27 32 0
24 25 26 27 -32 0
33 -32 0
-33 32 0
-25 34 0
-26 34 0
-27 34 0
25 26 27 -34 0
35 -34 0
-35 34 0
-26 36 0
-27 36 0
26 27 -36 0
37 -36 0
-37 36 0
38 -36 0
-38 36 0
-39 40 0
-41 40 0
-42 40 0
-43 40 0
-44 40 0
-45 40 0
46 0
47 -40 0
-47 40 0
-41 48 0
-42 48 0
-43 48 0
-44 48 0
-45 48 0
41 42 43 44 45 -48 0
49 -48 0
-49 48 0
-42 50 0
-43 50 0
-44 50 0
-45 50 0
42 43 44 45 -50 0
51 -50 0
-51 50 0
52 -50 0
-52 50 0
53 -50 0
-53 50 0
54 -50 0
-54 50 0
-55 56 0
-57 56 0
-58 56 0
-59 56 0
55 57 58 59 -56 0
60 -56 0
-60 56 0
61 -56 0
-61 56 0
62 -56 0
-62 56 0
63 -56 0
-63 56 0
-64 65 0
-66 65 0
-67 65 0
-68 65 0
-69 65 0
-70 65 0
71 0
72 -65 0
-72 65 0
-66 73 0
-67 73 0
-68 73 0
-69 73 0
-70 73 0
66 67 68 69 70 -73 0
74 -73 0
-74 73 0
-67 75 0
-68 75 0
-69 75 0
-70 75 0
67 68 69 70 -75 0
76 -75 0
-76 75 0
77 -75 0
-77 75 0
78 -75 0
-78 75 0
79 -75 0
-79 75 0
-80 81 0
-82 81 0
-83 81 0
-84 81 0
-85 81 0
80 82 83 84 85 -81 0
86 -81 0
-86 81 0
-82 87 0
-83 87 0
-84 87 0
-85 87 0
82 83 84 85 -87 0
88 -87 0
-88 87 0
-83 89 0
-84 89 0
-85 89 0
83 84 85 -89 0
90 -89 0
-90 89 0
-84 91 0
-85 91 0
84 85 -91 0
92 -91 0
-92 91 0
93 -85 0
85 -93 0
-94 95 0
-96 95 0
-97 95 0
-98 95 0
-99 95 0
-100 95 0
-101 95 0
102 0
103 -95 0
-103 95 0
-96 104 0
-97 104 0
-98 104 0
-99 104 0
-100 104 0
-101 104 0
105 0
106 -104 0
-106 104 0
-97 107 0
-98 107 0
-99 107 0
-100 107 0
-101 107 0
97 98 99 100 101 -107 0
108 -107 0
-108 107 0
-98 109 0
-99 109 0
-100 109 0
-101 109 0
98 99 100 101 -109 0
110 -109 0
-110 109 0
111 -109 0
-111 109 0
112 -109 0
-112 109 0
113 -109 0
-113 109 0
-114 115 0
-116 115 0
-117 115 0
-118 115 0
-119 115 0
-120 115 0
-121 115 0
122 0
123 -115 0
-123 115 0
-116 124 0
-117 124 0
-118 124 0
-119 124 0
-120 124 0
-121 124 0
125 0
126 -124 0
-126 124 0
-117 127 0
-118 127 0
-119 127 0
-120 127 0
-121 127 0
117 118 119 120 121 -127 0
128 -127 0
-128 127 0
-118 129 0
-119 129 0
-120 129 0
-121 129 0
118 119 120 121 -129 0
130 -129 0
-130 129 0
-119 131 0
-120 131 0
-121 131 0
119 120 121 -131 0
132 -131 0
-132 131 0
133 -131 0
-133 131 0
134 -131 0
-134 131 0
-135 136 0
-137 136 0
-138 136 0
-139 136 0
-140 136 0
-141 136 0
142 0
143 -136 0
-143 136 0
-137 144 0
-138 144 0
-139 144 0
-140 144 0
-141 144 0
137 138 139 140 141 -144 0
145 -144 0
-145 144 0
-138 146 0
-139 146 0
-140 146 0
-141 146 0
138 139 140 141 -146 0
147 -146 0
-147 146 0
148 -146 0
-148 146 0
149 -146 0
-149 146 0
150 -146 0
-150 146 0
-151 152 0
-153 152 0
-154 152 0
-155 152 0
-156 152 0
-157 152 0
-158 152 0
159 0
160 -152 0
-160 152 0
-153 161 0
-154 161 0
-155 161 0
-156 161 0
-157 161 0
-158 161 0
162 0
163 -161 0
-163 161 0
-154 164 0
-155 164 0
-156 164 0
-157 164 0
-158 164 0
154 155 156 157 158 -164 0
165 -164 0
-165 164 0
-155 166 0
-156 166 0
-157 166 0
-158 166 0
155 156 157 158 -166 0
167 -166 0
-167 166 0
-156 168 0
-157 168 0
-158 168 0
156 157 158 -168 0
169 -168 0
-169 168 0
170 -168 0
-170 168 0
171 -168 0
-171 168 0
-172 173 0
-174 173 0
-175 173 0
-176 173 0
-177 173 0
172 174 175 176 177 -173 0
178 -173 0
-178 173 0
-174 179 0
-175 179 0
-176 179 0
-177 179 0
174 175 176 177 -179 0
180 -179 0
-180 179 0
-175 181 0
-176 181 0
-177 181 0
175 176 177 -181 0
182 -181 0
-182 181 0
-176 183 0
-177 183 0
176 177 -183 0
184 -183 0
-184 183 0
185 -183 0
-185 183 0
-186 187 0
-188 187 0
-189 187 0
186 188 189 -187 0
190 -187 0
-190 187 0
-188 191 0
-189 191 0
188 189 -191 0
192 -191 0
-192 191 0
193 -189 0
189 -193 0
-194 195 0
-196 195 0
-197 195 0
-198 195 0
-199 195 0
-200 195 0
-201 195 0
202 0
203 -195 0
-203 195 0
-196 204 0
-197 204 0
-198 204 0
-199 204 0
-200 204 0
-201 204 0
205 0
206 -204 0
-206 204 0
-197 207 0
-198 207 0
-199 207 0
-200 207 0
-201 207 0
208 0
209 -207 0
-209 207 0
-198 210 0
-199 210 0
-200 210 0
-201 210 0
198 199 200 201 -210 0
211 -210 0
-211 210 0
212 -210 0
-212 210 0
213 -210 0
-213 210 0
214 -210 0
-214 210 0
-215 216 0
-217 216 0
-218 216 0
-219 216 0
-220 216 0
221 0
222 -216 0
-222 216 0
-217 223 0
-218 223 0
-219 223 0
-220 223 0
217 218 219 220 -223 0
224 -223 0
-224 223 0
-218 225 0
-219 225 0
-220 225 0
218 219 220 -225 0
226 -225 0
-226 225 0
-219 227 0
-220 227 0
219 220 -227 0
228 -227 0
-228 227 0
229 -220 0
220 -229 0
-230 231 0
-232 231 0
-233 231 0
-234 231 0
-235 231 0
236 0
237 -231 0
-237 231 0
-232 238 0
-233 238 0
-234 238 0
-235 238 0
232 233 234 235 -238 0
239 -238 0
-239 238 0
-233 240 0
-234 240 0
-235 240 0
233 234 235 -240 0
241 -240 0
-241 240 0
-234 242 0
-235 242 0
234 235 -242 0
243 -242 0
-243 242 0
244 -242 0
-244 242 0
-245 246 0
-247 246 0
-248 246 0
-249 246 0
245 247 248 249 -246 0
250 -246 0
-250 246 0
-247 251 0
-248 251 0
-249 251 0
247 248 249 -251 0
252 -251 0
-252 251 0
-248 253 0
-249 253 0
248 249 -253 0
254 -253 0
-254 253 0
255 -249 0
249 -255 0
-256 257 0
-258 257 0
-259 257 0
-260 257 0
-261 257 0
-262 257 0
-263 257 0
264 0
265 -257 0
-265 257 0
-258 266 0
-259 266 0
-260 266 0
-261 266 0
-262 266 0
-263 266 0
267 0
268 -266 0
-268 266 0
-259 269 0
-260 269 0
-261 269 0
-262 269 0
-263 269 0
270 0
271 -269 0
-271 269 0
-260 272 0
-261 272 0
-262 272 0
-263 272 0
260 261 262 263 -272 0
273 -272 0
-273 272 0
274 -272 0
-274 272 0
275 -272 0
-275 272 0
276 -272 0
-276 272 0
-277 278 0
-279 278 0
-280 278 0
-281 278 0
-282 278 0
283 0
284 -278 0
-284 278 0
-279 285 0
-280 285 0
-281 285 0
-282 285 0
279 280 281 282 -285 0
286 -285 0
-286 285 0
-280 287 0
-281 287 0
-282 287 0
280 281 282 -287 0
288 -287 0
-288 287 0
289 -287 0
-289 287 0
290 -287 0
-290 287 0
-291 292 0
-293 292 0
-294 292 0
-295 292 0
-296 292 0
297 0
298 -292 0
-298 292 0
-293 299 0
-294 299 0
-295 299 0
-296 299 0
293 294 295 296 -299 0
300 -299 0
-300 299 0
-294 301 0
-295 301 0
-296 301 0
294 295 296 -301 0
302 -301 0
-302 301 0
303 -301 0
-303 301 0
304 -301 0
-304 301 0
-305 306 0
-307 306 0
-308 306 0
-309 306 0
-310 306 0
311 0
312 -306 0
-312 306 0
-307 313 0
-308 313 0
-309 313 0
-310 313 0
307 308 309 310 -313 0
314 -313 0
-314 313 0
-308 315 0
-309 315 0
-310 315 0
308 309 310 -315 0
316 -315 0
-316 315 0
-309 317 0
-310 317 0
309 310 -317 0
318 -317 0
-318 317 0
319 -310 0
310 -319 0
-320 321 0
-322 321 0
-323 321 0
-324 321 0
-325 321 0
326 0
327 -321 0
-327 321 0
-322 328 0
-323 328 0
-324 328 0
-325 328 0
322 323 324 325 -328 0
329 -328 0
-329 328 0
-323 330 0
-324 330 0
-325 330 0
323 324 325 -330 0
331 -330 0
-331 330 0
-324 332 0
-325 332 0
324 325 -332 0
333 -332 0
-333 332 0
334 -325 0
325 -334 0
335 336 0
337 336 0
-335 -337 -336 0
-21 336 -338 0
21 -336 -338 0
338 -336 -21 0
21 336 338 0
-338 0
339 340 0
341 340 0
-339 -341 -340 0
-23 340 -342 0
23 -340 -342 0
342 -340 -23 0
23 340 342 0
-342 0
343 344 0
345 344 0
-343 -345 -344 0
-24 344 -346 0
24 -344 -346 0
346 -344 -24 0
24 344 346 0
-346 0
347 348 0
349 348 0
-347 -349 -348 0
-25 348 -350 0
25 -348 -350 0
350 -348 -25 0
25 348 350 0
-350 0
351 352 0
353 352 0
-351 -353 -352 0
-26 352 -354 0
26 -352 -354 0
354 -352 -26 0
26 352 354 0
-354 0
355 356 0
357 356 0
-355 -357 -356 0
-27 356 -358 0
27 -356 -358 0
358 -356 -27 0
27 356 358 0
-358 0
359 360 0
361 360 0
-359 -361 -360 0
-39 360 -362 0
39 -360 -362 0
362 -360 -39 0
39 360 362 0
-362 0
363 364 0
365 364 0
-363 -365 -364 0
-41 364 -366 0
41 -364 -366 0
366 -364 -41 0
41 364 366 0
-366 0
367 368 0
369 368 0
-367 -369 -368 0
-42 368 -370 0
42 -368 -370 0
370 -368 -42 0
42 368 370 0
-370 0
371 372 0
373 372 0
-371 -373 -372 0
-43 372 -374 0
43 -372 -374 0
374 -372 -43 0
43 372 374 0
-374 0
375 376 0
377 376 0
-375 -377 -376 0
-44 376 -378 0
44 -376 -378 0
378 -376 -44 0
44 376 378 0
-378 0
379 380 0
381 380 0
-379 -381 -380 0
-45 380 -382 0
45 -380 -382 0
382 -380 -45 0
45 380 382 0
-382 0
383 384 0
385 384 0
-383 -385 -384 0
-55 384 -386 0
55 -384 -386 0
386 -384 -55 0
55 384 386 0
-386 0
387 388 0
389 388 0
-387 -389 -388 0
-57 388 -390 0
57 -388 -390 0
390 -388 -57 0
57 388 390 0
-390 0
391 392 0
393 392 0
-391 -393 -392 0
-58 392 -394 0
58 -392 -394 0
394 -392 -58 0
58 392 394 0
-394 0
395 396 0
397 396 0
-395 -397 -396 0
-59 396 -398 0
59 -396 -398 0
398 -396 -59 0
59 396 398 0
-398 0
399 400 0
401 400 0
-399 -401 -400 0
-64 400 -402 0
64 -400 -402 0
402 -400 -64 0
64 400 402 0
-402 0
403 404 0
405 404 0
-403 -405 -404 0
-66 404 -406 0
66 -404 -406 0
406 -404 -66 0
66 404 406 0
-406 0
407 408 0
409 408 0
-407 -409 -408 0
-67 408 -410 0
67 -408 -410 0
410 -408 -67 0
67 408 410 0
-410 0
411 412 0
413 412 0
-411 -413 -412 0
-68 412 -414 0
68 -412 -414 0
414 -412 -68 0
68 412 414 0
-414 0
415 416 0
417 416 0
-415 -417 -416 0
-69 416 -418 0
69 -416 -418 0
418 -416 -69 0
69 416 418 0
-418 0
419 420 0
421 420 0
-419 -421 -420 0
-70 420 -422 0
70 -420 -422 0
422 -420 -70 0
70 420 422 0
-422 0
423 424 0
425 424 0
-423 -425 -424 0
-80 424 -426 0
80 -424 -426 0
426 -424 -80 0
80 424 426 0
-426 0
427 428 0
429 428 0
-427 -429 -428 0
-82 428 -430 0
82 -428 -430 0
430 -428 -82 0
82 428 430 0
-430 0
431 432 0
433 432 0
-431 -433 -432 0
-83 432 -434 0
83 -432 -434 0
434 -432 -83 0
83 432 434 0
-434 0
435 436 0
437 436 0
-435 -437 -436 0
-84 436 -438 0
84 -436 -438 0
438 -436 -84 0
84 436 438 0
-438 0
439 440 0
441 440 0
-439 -441 -440 0
-85 440 -442 0
85 -440 -442 0
442 -440 -85 0
85 440 442 0
-442 0
443 444 0
445 444 0
-443 -445 -444 0
-94 444 -446 0
94 -444 -446 0
446 -444 -94 0
94 444 446 0
-446 0
447 448 0
449 448 0
-447 -449 -448 0
-96 448 -450 0
96 -448 -450 0
450 -448 -96 0
96 448 450 0
-450 0
451 452 0
453 452 0
-451 -453 -452 0
-97 452 -454 0
97 -452 -454 0
454 -452 -97 0
97 452 454 0
-454 0
455 456 0
457 456 0
-455 -457 -456 0
-98 456 -458 0
98 -456 -458 0
458 -456 -98 0
98 456 458 0
-458 0
459 460 0
461 460 0
-459 -461 -460 0
-99 460 -462 0
99 -460 -462 0
462 -460 -99 0
99 460 462 0
-462 0
463 464 0
465 464 0
-463 -465 -464 0
-100 464 -466 0
100 -464 -466 0
466 -464 -100 0
100 464 466 0
-466 0
467 468 0
469 468 0
-467 -469 -468 0
-101 468 -470 0
101 -468 -470 0
470 -468 -101 0
101 468 470 0
-470 0
471 472 0
473 472 0
-471 -473 -472 0
-114 472 -474 0
114 -472 -474 0
474 -472 -114 0
114 472 474 0
-474 0
475 476 0
477 476 0
-475 -477 -476 0
-116 476 -478 0
116 -476 -478 0
478 -476 -116 0
116 476 478 0
-478 0
479 480 0
481 480 0
-479 -481 -480 0
-117 480 -482 0
117 -480 -482 0
482 -480 -117 0
117 480 482 0
-482 0
483 484 0
485 484 0
-483 -485 -484 0
-118 484 -486 0
118 -484 -486 0
486 -484 -118 0
118 484 486 0
-486 0
487 488 0
489 488 0
-487 -489 -488 0
-119 488 -490 0
119 -488 -490 0
490 -488 -119 0
119 488 490 0
-490 0
491 492 0
493 492 0
-491 -493 -492 0
-120 492 -494 0
120 -492 -494 0
494 -492 -120 0
120 492 494 0
-494 0
495 496 0
497 496 0
-495 -497 -496 0
-121 496 -498 0
121 -496 -498 0
498 -496 -121 0
121 496 498 0
-498 0
499 500 0
501 500 0
-499 -501 -500 0
-135 500 -502 0
135 -500 -502 0
502 -500 -135 0
135 500 502 0
-502 0
503 504 0
505 504 0
-503 -505 -504 0
-137 504 -506 0
137 -504 -506 0
506 -504 -137 0
137 504 506 0
-506 0
507 508 0
509 508 0
-507 -509 -508 0
-138 508 -510 0
138 -508 -510 0
510 -508 -138 0
138 508 510 0
-510 0
511 512 0
513 512 0
-511 -513 -512 0
-139 512 -514 0
139 -512 -514 0
514 -512 -139 0
139 512 514 0
-514 0
515 516 0
517 516 0
-515 -517 -516 0
-140 516 -518 0
140 -516 -518 0
518 -516 -140 0
140 516 518 0
-518 0
519 520 0
521 520 0
-519 -521 -520 0
-141 520 -522 0
141 -520 -522 0
522 -520 -141 0
141 520 522 0
-522 0
523 524 0
525 524 0
-523 -525 -524 0
-151 524 -526 0
151 -524 -526 0
526 -524 -151 0
151 524 526 0
-526 0
527 528 0
529 528 0
-527 -529 -528 0
-153 528 -530 0
153 -528 -530 0
530 -528 -153 0
153 528 530 0
-530 0
531 532 0
533 532 0
-531 -533 -532 0
-154 532 -534 0
154 -532 -534 0
534 -532 -154 0
154 532 534 0
-534 0
535 536 0
537 536 0
-535 -537 -536 0
-155 536 -538 0
155 -536 -538 0
538 -536 -155 0
155 536 538 0
-538 0
539 540 0
541 540 0
-539 -541 -540 0
-156 540 -542 0
156 -540 -542 0
542 -540 -156 0
156 540 542 0
-542 0
543 544 0
545 544 0
-543 -545 -544 0
-157 544 -546 0
157 -544 -546 0
546 -544 -157 0
157 544 546 0
-546 0
547 548 0
549 548 0
-547 -549 -548 0
-158 548 -550 0
158 -548 -550 0
550 -548 -158 0
158 548 550 0
-550 0
551 552 0
553 552 0
-551 -553 -552 0
-172 552 -554 0
172 -552 -554 0
554 -552 -172 0
172 552 554 0
-554 0
555 556 0
557 556 0
-555 -557 -556 0
-174 556 -558 0
174 -556 -558 0
558 -556 -174 0
174 556 558 0
-558 0
559 560 0
561 560 0
-559 -561 -560 0
-175 560 -562 0
175 -560 -562 0
562 -560 -175 0
175 560 562 0
-562 0
563 564 0
565 564 0
-563 -565 -564 0
-176 564 -566 0
176 -564 -566 0
566 -564 -176 0
176 564 566 0
-566 0
567 568 0
569 568 0
-567 -569 -568 0
-177 568 -570 0
177 -568 -570 0
570 -568 -177 0
177 568 570 0
-570 0
571 572 0
573 572 0
-571 -573 -572 0
-186 572 -574 0
186 -572 -574 0
574 -572 -186 0
186 572 574 0
-574 0
575 576 0
577 576 0
-575 -577 -576 0
-188 576 -578 0
188 -576 -578 0
578 -576 -188 0
188 576 578 0
-578 0
579 580 0
581 580 0
-579 -581 -580 0
-189 580 -582 0
189 -580 -582 0
582 -580 -189 0
189 580 582 0
-582 0
583 584 0
585 584 0
-583 -585 -584 0
-194 584 -586 0
194 -584 -586 0
586 -584 -194 0
194 584 586 0
-586 0
587 588 0
589 588 0
-587 -589 -588 0
-196 588 -590 0
196 -588 -590 0
590 -588 -196 0
196 588 590 0
-590 0
591 592 0
593 592 0
-591 -593 -592 0
-197 592 -594 0
197 -592 -594 0
594 -592 -197 0
197 592 594 0
-594 0
595 596 0
597 596 0
-595 -597 -596 0
-198 596 -598 0
198 -596 -598 0
598 -596 -198 0
198 596 598 0
-598 0
599 600 0
601 600 0
-599 -601 -600 0
-199 600 -602 0
199 -600 -602 0
602 -600 -199 0
199 600 602 0
-602 0
603 604 0
605 604 0
-603 -605 -604 0
-200 604 -606 0
200 -604 -606 0
606 -604 -200 0
200 604 606 0
-606 0
607 608 0
609 608 0
-607 -609 -608 0
-201 608 -610 0
201 -608 -610 0
610 -608 -201 0
201 608 610 0
-610 0
611 612 0
613 612 0
-611 -613 -612 0
-215 612 -614 0
215 -612 -614 0
614 -612 -215 0
215 612 614 0
-614 0
615 616 0
617 616 0
-615 -617 -616 0
-217 616 -618 0
217 -616 -618 0
618 -616 -217 0
217 616 618 0
-618 0
619 620 0
621 620 0
-619 -621 -620 0
-218 620 -622 0
218 -620 -622 0
622 -620 -218 0
218 620 622 0
-622 0
623 624 0
625 624 0
-623 -625 -624 0
-219 624 -626 0
219 -624 -626 0
626 -624 -219 0
219 624 626 0
-626 0
627 628 0
629 628 0
-627 -629 -628 0
-220 628 -630 0
220 -628 -630 0
630 -628 -220 0
220 628 630 0
-630 0
631 632 0
633 632 0
-631 -633 -632 0
-230 632 -634 0
230 -632 -634 0
634 -632 -230 0
230 632 634 0
-634 0
635 636 0
637 636 0
-635 -637 -636 0
-232 636 -638 0
232 -636 -638 0
638 -636 -232 0
232 636 638 0
-638 0
639 640 0
641 640 0
-639 -641 -640 0
-233 640 -642 0
233 -640 -642 0
642 -640 -233 0
233 640 642 0
-642 0
643 644 0
645 644 0
-643 -645 -644 0
-234 644 -646 0
234 -644 -646 0
646 -644 -234 0
234 644 646 0
-646 0
647 648 0
649 648 0
-647 -649 -648 0
-235 648 -650 0
235 -648 -650 0
650 -648 -235 0
235 648 650 0
-650 0
651 652 0
653 652 0
-651 -653 -652 0
-245 652 -654 0
245 -652 -654 0
654 -652 -245 0
245 652 654 0
-654 0
655 656 0
657 656 0
-655 -657 -656 0
-247 656 -658 0
247 -656 -658 0
658 -656 -247 0
247 656 658 0
-658 0
659 660 0
661 660 0
-659 -661 -660 0
-248 660 -662 0
248 -660 -662 0
662 -660 -248 0
248 660 662 0
-662 0
663 664 0
665 664 0
-663 -665 -664 0
-249 664 -666 0
249 -664 -666 0
666 -664 -249 0
249 664 666 0
-666 0
667 668 0
669 668 0
-667 -669 -668 0
-256 668 -670 0
256 -668 -670 0
670 -668 -256 0
256 668 670 0
-670 0
671 672 0
673 672 0
-671 -673 -672 0
-258 672 -674 0
258 -672 -674 0
674 -672 -258 0
258 672 674 0
-674 0
675 676 0
677 676 0
-675 -677 -676 0
-259 676 -678 0
259 -676 -678 0
678 -676 -259 0
259 676 678 0
-678 0
679 680 0
681 680 0
-679 -681 -680 0
-260 680 -682 0
260 -680 -682 0
682 -680 -260 0
260 680 682 0
-682 0
683 684 0
685 684 0
-683 -685 -684 0
-261 684 -686 0
261 -684 -686 0
686 -684 -261 0
261 684 686 0
-686 0
687 688 0
689 688 0
-687 -689 -688 0
-262 688 -690 0
262 -688 -690 0
690 -688 -262 0
262 688 690 0
-690 0
691 692 0
693 692 0
-691 -693 -692 0
-263 692 -694 0
263 -692 -694 0
694 -692 -263 0
263 692 694 0
-694 0
695 696 0
697 696 0
-695 -697 -696 0
-277 696 -698 0
277 -696 -698 0
698 -696 -277 0
277 696 698 0
-698 0
699 700 0
701 700 0
-699 -701 -700 0
-279 700 -702 0
279 -700 -702 0
702 -700 -279 0
279 700 702 0
-702 0
703 704 0
705 704 0
-703 -705 -704 0
-280 704 -706 0
280 -704 -706 0
706 -704 -280 0
280 704 706 0
-706 0
707 708 0
709 708 0
-707 -709 -708 0
-281 708 -710 0
281 -708 -710 0
710 -708 -281 0
281 708 710 0
-710 0
711 712 0
713 712 0
-711 -713 -712 0
-282 712 -714 0
282 -712 -714 0
714 -712 -282 0
282 712 714 0
-714 0
715 716 0
717 716 0
-715 -717 -716 0
-291 716 -718 0
291 -716 -718 0
718 -716 -291 0
291 716 718 0
-718 0
719 720 0
721 720 0
-719 -721 -720 0
-293 720 -722 0
293 -720 -722 0
722 -720 -293 0
293 720 722 0
-722 0
723 724 0
725 724 0
-723 -725 -724 0
-294 724 -726 0
294 -724 -726 0
726 -724 -294 0
294 724 726 0
-726 0
727 728 0
729 728 0
-727 -729 -728 0
-295 728 -730 0
295 -728 -730 0
730 -728 -295 0
295 728 730 0
-730 0
731 732 0
733 732 0
-731 -733 -732 0
-296 732 -734 0
296 -732 -734 0
734 -732 -296 0
296 732 734 0
-734 0
735 736 0
737 736 0
-735 -737 -736 0
-305 736 -738 0
305 -736 -738 0
738 -736 -305 0
305 736 738 0
-738 0
739 740 0
741 740 0
-739 -741 -740 0
-307 740 -742 0
307 -740 -742 0
742 -740 -307 0
307 740 742 0
-742 0
743 744 0
745 744 0
-743 -745 -744 0
-308 744 -746 0
308 -744 -746 0
746 -744 -308 0
308 744 746 0
-746 0
747 748 0
749 748 0
-747 -749 -748 0
-309 748 -750 0
309 -748 -750 0
750 -748 -309 0
309 748 750 0
-750 0
751 752 0
753 752 0
-751 -753 -752 0
-310 752 -754 0
310 -752 -754 0
754 -752 -310 0
310 752 754 0
-754 0
755 756 0
757 756 0
-755 -757 -756 0
-320 756 -758 0
320 -756 -758 0
758 -756 -320 0
320 756 758 0
-758 0
759 760 0
761 760 0
-759 -761 -760 0
-322 760 -762 0
322 -760 -762 0
762 -760 -322 0
322 760 762 0
-762 0
763 764 0
765 764 0
-763 -765 -764 0
-323 764 -766 0
323 -764 -766 0
766 -764 -323 0
323 764 766 0
-766 0
767 768 0
769 768 0
-767 -769 -768 0
-324 768 -770 0
324 -768 -770 0
770 -768 -324 0
324 768 770 0
-770 0
771 772 0
773 772 0
-771 -773 -772 0
-325 772 -774 0
325 -772 -774 0
774 -772 -325 0
325 772 774 0
-774 0
-335 0
-339 0
-343 0
347 0
-351 0
-355 0
-359 0
363 0
-367 0
371 0
375 0
379 0
383 0
387 0
391 0
395 0
-399 0
-403 0
407 0
411 0
-415 0
419 0
423 0
427 0
431 0
-435 0
439 0
-443 0
447 0
-451 0
455 0
-459 0
463 0
467 0
-471 0
475 0
-479 0
-483 0
-487 0
-491 0
495 0
-499 0
503 0
507 0
511 0
515 0
519 0
-523 0
527 0
531 0
-535 0
539 0
-543 0
-547 0
-551 0
555 0
559 0
-563 0
-567 0
-571 0
575 0
-579 0
-583 0
-587 0
-591 0
595 0
599 0
-603 0
607 0
611 0
-615 0
619 0
-623 0
627 0
-631 0
-635 0
639 0
643 0
-647 0
-651 0
-655 0
659 0
-663 0
-667 0
-671 0
-675 0
679 0
-683 0
687 0
691 0
-695 0
699 0
703 0
-707 0
-711 0
-715 0
719 0
723 0
727 0
-731 0
735 0
-739 0
743 0
-747 0
751 0
-755 0
-759 0
-763 0
767 0
-771 0
-775 776 0
-777 776 0
-778 776 0
-779 776 0
-780 776 0
-781 776 0
782 0
337 -776 0
-337 776 0
-777 783 0
-778 783 0
-779 783 0
-780 783 0
-781 783 0
777 778 779 780 781 -783 0
341 -783 0
-341 783 0
-778 784 0
-779 784 0
-780 784 0
-781 784 0
778 779 780 781 -784 0
345 -784 0
-345 784 0
-779 785 0
-780 785 0
-781 785 0
779 780 781 -785 0
349 -785 0
-349 785 0
-780 786 0
-781 786 0
780 781 -786 0
353 -786 0
-353 786 0
357 -786 0
-357 786 0
-787 788 0
-789 788 0
-790 788 0
-791 788 0
-792 788 0
-793 788 0
794 0
361 -788 0
-361 788 0
-789 795 0
-790 795 0
-791 795 0
-792 795 0
-793 795 0
789 790 791 792 793 -795 0
365 -795 0
-365 795 0
-790 796 0
-791 796 0
-792 796 0
-793 796 0
790 791 792 793 -796 0
369 -796 0
-369 796 0
373 -796 0
-373 796 0
377 -796 0
-377 796 0
381 -796 0
-381 796 0
-797 798 0
-799 798 0
-800 798 0
-801 798 0
797 799 800 801 -798 0
385 -798 0
-385 798 0
389 -798 0
-389 798 0
393 -798 0
-393 798 0
397 -798 0
-397 798 0
-802 803 0
-804 803 0
-805 803 0
-806 803 0
-807 803 0
-808 803 0
809 0
401 -803 0
-401 803 0
-804 810 0
-805 810 0
-806 810 0
-807 810 0
-808 810 0
804 805 806 807 808 -810 0
405 -810 0
-405 810 0
-805 811 0
-806 811 0
-807 811 0
-808 811 0
805 806 807 808 -811 0
409 -811 0
-409 811 0
413 -811 0
-413 811 0
417 -811 0
-417 811 0
421 -811 0
-421 811 0
-812 813 0
-814 813 0
-815 813 0
-816 813 0
-817 813 0
812 814 815 816 817 -813 0
425 -813 0
-425 813 0
-814 818 0
-815 818 0
-816 818 0
-817 818 0
814 815 816 817 -818 0
429 -818 0
-429 818 0
-815 819 0
-816 819 0
-817 819 0
815 816 817 -819 0
433 -819 0
-433 819 0
-816 820 0
-817 820 0
816 817 -820 0
437 -820 0
-437 820 0
441 -817 0
817 -441 0
-821 822 0
-823 822 0
-824 822 0
-825 822 0
-826 822 0
-827 822 0
-828 822 0
829 0
445 -822 0
-445 822 0
-823 830 0
-824 830 0
-825 830 0
-826 830 0
-827 830 0
-828 830 0
831 0
449 -830 0
-449 830 0
-824 832 0
-825 832 0
-826 832 0
-827 832 0
-828 832 0
824 825 826 827 828 -832 0
453 -832 0
-453 832 0
-825 833 0
-826 833 0
-827 833 0
-828 833 0
825 826 827 828 -833 0
457 -833 0
-457 833 0
461 -833 0
-461 833 0
465 -833 0
-465 833 0
469 -833 0
-469 833 0
-834 835 0
-836 835 0
-837 835 0
-838 835 0
-839 835 0
-840 835 0
-841 835 0
842 0
473 -835 0
-473 835 0
-836 843 0
-837 843 0
-838 843 0
-839 843 0
-840 843 0
-841 843 0
844 0
477 -843 0
-477 843 0
-837 845 0
-838 845 0
-839 845 0
-840 845 0
-841 845 0
837 838 839 840 841 -845 0
481 -845 0
-481 845 0
-838 846 0
-839 846 0
-840 846 0
-841 846 0
838 839 840 841 -846 0
485 -846 0
-485 846 0
-839 847 0
-840 847 0
-841 847 0
839 840 841 -847 0
489 -847 0
-489 847 0
493 -847 0
-493 847 0
497 -847 0
-497 847 0
-848 849 0
-850 849 0
-851 849 0
-852 849 0
-853 849 0
-854 849 0
855 0
501 -849 0
-501 849 0
-850 856 0
-851 856 0
-852 856 0
-853 856 0
-854 856 0
850 851 852 853 854 -856 0
505 -856 0
-505 856 0
-851 857 0
-852 857 0
-853 857 0
-854 857 0
851 852 853 854 -857 0
509 -857 0
-509 857 0
513 -857 0
-513 857 0
517 -857 0
-517 857 0
521 -857 0
-521 857 0
-858 859 0
-860 859 0
-861 859 0
-862 859 0
-863 859 0
-864 859 0
-865 859 0
866 0
525 -859 0
-525 859 0
-860 867 0
-861 867 0
-862 867 0
-863 867 0
-864 867 0
-865 867 0
868 0
529 -867 0
-529 867 0
-861 869 0
-862 869 0
-863 869 0
-864 869 0
-865 869 0
861 862 863 864 865 -869 0
533 -869 0
-533 869 0
-862 870 0
-863 870 0
-864 870 0
-865 870 0
862 863 864 865 -870 0
537 -870 0
-537 870 0
-863 871 0
-864 871 0
-865 871 0
863 864 865 -871 0
541 -871 0
-541 871 0
545 -871 0
-545 871 0
549 -871 0
-549 871 0
-872 873 0
-874 873 0
-875 873 0
-876 873 0
-877 873 0
872 874 875 876 877 -873 0
553 -873 0
-553 873 0
-874 878 0
-875 878 0
-876 878 0
-877 878 0
874 875 876 877 -878 0
557 -878 0
-557 878 0
-875 879 0
-876 879 0
-877 879 0
875 876 877 -879 0
561 -879 0
-561 879 0
-876 880 0
-877 880 0
876 877 -880 0
565 -880 0
-565 880 0
569 -880 0
-569 880 0
-881 882 0
-883 882 0
-884 882 0
881 883 884 -882 0
573 -882 0
-573 882 0
-883 885 0
-884 885 0
883 884 -885 0
577 -885 0
-577 885 0
581 -884 0
884 -581 0
-886 887 0
-888 887 0
-889 887 0
-890 887 0
-891 887 0
-892 887 0
-893 887 0
894 0
585 -887 0
-585 887 0
-888 895 0
-889 895 0
-890 895 0
-891 895 0
-892 895 0
-893 895 0
896 0
589 -895 0
-589 895 0
-889 897 0
-890 897 0
-891 897 0
-892 897 0
-893 897 0
898 0
593 -897 0
-593 897 0
-890 899 0
-891 899 0
-892 899 0
-893 899 0
890 891 892 893 -899 0
597 -899 0
-597 899 0
601 -899 0
-601 899 0
605 -899 0
-605 899 0
609 -899 0
-609 899 0
-900 901 0
-902 901 0
-903 901 0
-904 901 0
-905 901 0
906 0
613 -901 0
-613 901 0
-902 907 0
-903 907 0
-904 907 0
-905 907 0
902 903 904 905 -907 0
617 -907 0
-617 907 0
-903 908 0
-904 908 0
-905 908 0
903 904 905 -908 0
621 -908 0
-621 908 0
-904 909 0
-905 909 0
904 905 -909 0
625 -909 0
-625 909 0
629 -905 0
905 -629 0
-910 911 0
-912 911 0
-913 911 0
-914 911 0
-915 911 0
916 0
633 -911 0
-633 911 0
-912 917 0
-913 917 0
-914 917 0
-915 917 0
912 913 914 915 -917 0
637 -917 0
-637 917 0
-913 918 0
-914 918 0
-915 918 0
913 914 915 -918 0
641 -918 0
-641 918 0
-914 919 0
-915 919 0
914 915 -919 0
645 -919 0
-645 919 0
649 -919 0
-649 919 0
-920 921 0
-922 921 0
-923 921 0
-924 921 0
920 922 923 924 -921 0
653 -921 0
-653 921 0
-922 925 0
-923 925 0
-924 925 0
922 923 924 -925 0
657 -925 0
-657 925 0
-923 926 0
-924 926 0
923 924 -926 0
661 -926 0
-661 926 0
665 -924 0
924 -665 0
-927 928 0
-929 928 0
-930 928 0
-931 928 0
-932 928 0
-933 928 0
-934 928 0
935 0
669 -928 0
-669 928 0
-929 936 0
-930 936 0
-931 936 0
-932 936 0
-933 936 0
-934 936 0
937 0
673 -936 0
-673 936 0
-930 938 0
-931 938 0
-932 938 0
-933 938 0
-934 938 0
939 0
677 -938 0
-677 938 0
-931 940 0
-932 940 0
-933 940 0
-934 940 0
931 932 933 934 -940 0
681 -940 0
-681 940 0
685 -940 0
-685 940 0
689 -940 0
-689 940 0
693 -940 0
-693 940 0
-941 942 0
-943 942 0
-944 942 0
-945 942 0
-946 942 0
947 0
697 -942 0
-697 942 0
-943 948 0
-944 948 0
-945 948 0
-946 948 0
943 944 945 946 -948 0
701 -948 0
-701 948 0
-944 949 0
-945 949 0
-946 949 0
944 945 946 -949 0
705 -949 0
-705 949 0
709 -949 0
-709 949 0
713 -949 0
-713 949 0
-950 951 0
-952 951 0
-953 951 0
-954 951 0
-955 951 0
956 0
717 -951 0
-717 951 0
-952 957 0
-953 957 0
-954 957 0
-955 957 0
952 953 954 955 -957 0
721 -957 0
-721 957 0
-953 958 0
-954 958 0
-955 958 0
953 954 955 -958 0
725 -958 0
-725 958 0
729 -958 0
-729 958 0
733 -958 0
-733 958 0
-959 960 0
-961 960 0
-962 960 0
-963 960 0
-964 960 0
965 0
737 -960 0
-737 960 0
-961 966 0
-962 966 0
-963 966 0
-964 966 0
961 962 963 964 -966 0
741 -966 0
-741 966 0
-962 967 0
-963 967 0
-964 967 0
962 963 964 -967 0
745 -967 0
-745 967 0
-963 968 0
-964 968 0
963 964 -968 0
749 -968 0
-749 968 0
753 -964 0
964 -753 0
-969 970 0
-971 970 0
-972 970 0
-973 970 0
-974 970 0
975 0
757 -970 0
-757 970 0
-971 976 0
-972 976 0
-973 976 0
-974 976 0
971 972 973 974 -976 0
761 -976 0
-761 976 0
-972 977 0
-973 977 0
-974 977 0
972 973 974 -977 0
765 -977 0
-765 977 0
-973 978 0
-974 978 0
973 974 -978 0
769 -978 0
-769 978 0
773 -974 0
974 -773 0
-775 0
777 0
778 0
779 0
780 0
-781 0
-787 0
789 0
-790 0
791 0
-792 0
-793 0
797 0
799 0
-800 0
-801 0
-802 0
804 0
805 0
806 0
807 0
-808 0
-812 0
-814 0
815 0
816 0
817 0
-821 0
-823 0
824 0
-825 0
826 0
-827 0
828 0
834 0
-836 0
837 0
-838 0
-839 0
-840 0
-841 0
-848 0
850 0
-851 0
852 0
853 0
-854 0
-858 0
860 0
-861 0
-862 0
863 0
-864 0
865 0
872 0
-874 0
875 0
876 0
-877 0
881 0
-883 0
-884 0
886 0
888 0
-889 0
-890 0
-891 0
-892 0
-893 0
-900 0
-902 0
-903 0
-904 0
-905 0
-910 0
-912 0
-913 0
-914 0
-915 0
920 0
922 0
-923 0
-924 0
-927 0
929 0
930 0
-931 0
-932 0
-933 0
-934 0
-941 0
-943 0
-944 0
-945 0
-946 0
950 0
-952 0
-953 0
-954 0
-955 0
-959 0
-961 0
-962 0
-963 0
-964 0
-969 0
971 0
-972 0
-973 0
-974 0
-979 -980 0
-979 -981 0
-979 -982 0
-979 -983 0
984 -979 0
-979 -985 0
-979 -986 0
-979 -987 0
988 -979 0
-979 -989 0
990 -979 0
991 -979 0
992 -979 0
993 -979 0
994 -979 0
-979 995 0
-979 996 0
-979 -997 0
-979 -998 0
-979 999 0
-979 1000 0
-979 -1001 0
-979 1002 0
-979 1003 0
1004 -979 0
1005 -979 0
-979 -1006 0
1007 -979 0
-979 -1008 0
1009 -979 0
-979 -1010 0
1011 -979 0
-979 -1012 0
1013 -979 0
1014 -979 0
-979 -1015 0
1016 -979 0
-979 -1017 0
-979 -1018 0
-979 -1019 0
-979 -1020 0
1021 -979 0
-979 -1022 0
1023 -979 0
1024 -979 0
1025 -979 0
1026 -979 0
1027 -979 0
-979 -1028 0
1029 -979 0
1030 -979 0
-979 -1031 0
1032 -979 0
-979 -1033 0
-979 -1034 0
-979 -1035 0
1036 -979 0
1037 -979 0
-979 -1038 0
-979 -1039 0
-979 -1040 0
1041 -979 0
-979 -1042 0
-979 -1043 0
-979 -1044 0
-979 -1045 0
1046 -979 0
1047 -979 0
-979 -1048 0
1049 -979 0
1050 -979 0
-979 -1051 0
1052 -979 0
-979 -1053 0
1054 -979 0
-979 -1055 0
-979 -1056 0
1057 -979 0
1058 -979 0
-979 -1059 0
-979 -1060 0
-979 -1061 0
1062 -979 0
-979 -1063 0
-979 -1064 0
-979 -1065 0
-979 -1066 0
1067 -979 0
-979 -1068 0
1069 -979 0
1070 -979 0
-979 -1071 0
1072 -979 0
1073 -979 0
-979 -1074 0
-979 -1075 0
-979 -1076 0
1077 -979 0
1078 -979 0
1079 -979 0
-979 -1080 0
1081 -979 0
-979 -1082 0
1083 -979 0
-979 -1084 0
1085 -979 0
-979 -1086 0
-979 -1087 0
-979 -1088 0
1089 -979 0
-979 -1090 0
-980 -981 0
982 -980 0
983 -980 0
984 -980 0
985 -980 0
-980 -986 0
-980 -987 0
988 -980 0
-980 -989 0
990 -980 0
-980 -991 0
-980 -992 0
993 -980 0
994 -980 0
-980 -995 0
-980 -996 0
-980 -997 0
-980 998 0
-980 999 0
-980 1000 0
-980 1001 0
-980 -1002 0
-980 -1003 0
-980 -1004 0
-980 1005 0
1006 -980 0
1007 -980 0
-980 -1008 0
-980 -1009 0
1010 -980 0
-980 -1011 0
1012 -980 0
-980 -1013 0
1014 -980 0
1015 -980 0
-980 -1016 0
1017 -980 0
-980 -1018 0
-980 -1019 0
-980 -1020 0
-980 -1021 0
-980 -1022 0
1023 -980 0
-980 -1024 0
1025 -980 0
1026 -980 0
-980 -1027 0
-980 -1028 0
1029 -980 0
-980 -1030 0
-980 -1031 0
1032 -980 0
-980 -1033 0
1034 -980 0
1035 -980 0
-980 -1036 0
1037 -980 0
1038 -980 0
-980 -1039 0
1040 -980 0
-980 -1041 0
-980 -1042 0
1043 -980 0
1044 -980 0
-980 -1045 0
-980 -1046 0
-980 -1047 0
-980 -1048 0
-980 -1049 0
-980 -1050 0
-980 -1051 0
-980 -1052 0
-980 -1053 0
-980 -1054 0
-980 -1055 0
-980 -1056 0
-980 -1057 0
-980 -1058 0
-980 -1059 0
1060 -980 0
1061 -980 0
-980 -1062 0
-980 -1063 0
-980 -1064 0
1065 -980 0
1066 -980 0
-980 -1067 0
-980 -1068 0
-980 -1069 0
-980 -1070 0
-980 -1071 0
-980 -1072 0
-980 -1073 0
-980 -1074 0
-980 -1075 0
1076 -980 0
-980 -1077 0
-980 -1078 0
-980 -1079 0
-980 -1080 0
-980 -1081 0
-980 -1082 0
-980 -1083 0
-980 -1084 0
-980 -1085 0
-980 -1086 0
1087 -980 0
-980 -1088 0
-980 -1089 0
-980 -1090 0
979 980 0
-1091 0
-1092 0
-1093 0
-1094 0
-1095 0
-1096 0
-1097 0
-1098 0
